DIMACS_lns/graph-1000-970.col
p edge 1000 1736
e 2 59
e 2 322
e 2 99
e 4 738
e 4 684
e 4 150
e 4 503
e 5 860
e 5 516
e 5 906
e 6 181
e 6 343
e 6 966
e 6 547
e 6 448
e 6 617
e 6 198
e 6 853
e 7 436
e 7 863
e 7 808
e 7 16
e 7 125
e 7 942
e 7 848
e 7 492
e 8 560
e 8 234
e 8 656
e 9 113
e 9 781
e 9 689
e 9 276
e 10 282
e 10 986
e 10 593
e 10 853
e 10 542
e 12 465
e 12 806
e 12 664
e 12 766
e 12 343
e 13 245
e 13 209
e 13 504
e 13 571
e 13 119
e 13 127
e 16 858
e 16 335
e 16 493
e 16 531
e 16 687
e 16 556
e 16 638
e 17 35
e 17 795
e 17 236
e 17 87
e 17 670
e 20 699
e 20 615
e 20 977
e 20 970
e 20 327
e 20 548
e 21 330
e 21 402
e 21 156
e 22 447
e 22 941
e 22 491
e 22 845
e 22 187
e 22 300
e 24 107
e 24 242
e 24 297
e 25 45
e 25 228
e 25 982
e 25 929
e 25 631
e 26 274
e 26 437
e 26 101
e 26 29
e 29 446
e 29 511
e 29 619
e 30 593
e 30 489
e 30 591
e 31 663
e 31 106
e 31 630
e 32 68
e 32 492
e 32 350
e 32 413
e 33 770
e 33 533
e 33 663
e 34 456
e 34 519
e 34 337
e 35 338
e 35 467
e 35 49
e 35 799
e 35 584
e 35 396
e 37 771
e 37 38
e 37 794
e 37 799
e 37 759
e 38 884
e 38 262
e 39 419
e 39 943
e 39 278
e 39 770
e 40 272
e 40 605
e 40 146
e 41 637
e 41 533
e 41 190
e 43 385
e 43 480
e 43 862
e 43 498
e 45 496
e 45 63
e 45 115
e 47 549
e 47 943
e 47 270
e 48 756
e 48 750
e 48 502
e 48 111
e 49 319
e 49 427
e 49 839
e 49 900
e 53 857
e 53 784
e 53 475
e 53 109
e 55 254
e 55 549
e 55 895
e 55 79
e 55 928
e 56 427
e 56 647
e 56 407
e 58 761
e 58 577
e 58 813
e 58 885
e 59 731
e 59 389
e 59 374
e 59 382
e 60 584
e 60 193
e 60 147
e 60 586
e 60 242
e 60 116
e 62 904
e 62 549
e 62 858
e 63 707
e 63 274
e 64 736
e 64 337
e 64 530
e 66 94
e 66 158
e 66 958
e 66 801
e 66 805
e 66 646
e 67 529
e 67 541
e 67 512
e 68 282
e 68 706
e 68 637
e 68 114
e 69 975
e 69 460
e 69 235
e 69 203
e 69 545
e 69 958
e 69 549
e 69 452
e 69 189
e 70 893
e 70 612
e 70 287
e 70 460
e 71 817
e 71 819
e 71 464
e 71 75
e 71 357
e 71 414
e 71 640
e 72 348
e 72 691
e 72 556
e 72 754
e 73 374
e 73 678
e 73 493
e 73 206
e 73 931
e 74 721
e 74 580
e 74 824
e 75 787
e 75 881
e 75 531
e 75 472
e 75 296
e 75 824
e 75 508
e 75 706
e 75 625
e 79 809
e 79 137
e 79 944
e 80 455
e 80 931
e 80 637
e 80 422
e 80 282
e 80 830
e 80 128
e 80 721
e 81 169
e 81 135
e 81 265
e 81 343
e 81 768
e 81 151
e 82 484
e 82 142
e 82 183
e 82 92
e 83 171
e 83 304
e 83 183
e 83 150
e 85 803
e 85 765
e 85 552
e 85 993
e 86 830
e 86 179
e 86 969
e 86 459
e 86 579
e 87 99
e 87 471
e 87 707
e 90 846
e 90 691
e 90 668
e 91 972
e 91 909
e 91 491
e 91 993
e 92 227
e 92 866
e 92 949
e 94 511
e 94 582
e 94 408
e 94 633
e 95 327
e 95 868
e 95 512
e 95 988
e 96 256
e 96 847
e 96 333
e 99 393
e 99 644
e 99 553
e 100 713
e 100 313
e 100 818
e 101 120
e 101 569
e 101 763
e 101 728
e 101 884
e 102 967
e 102 123
e 102 544
e 102 198
e 104 953
e 104 114
e 104 569
e 104 461
e 106 471
e 106 933
e 106 921
e 107 997
e 107 687
e 107 265
e 107 903
e 107 545
e 107 208
e 108 794
e 108 531
e 108 346
e 108 425
e 109 129
e 109 167
e 109 413
e 109 186
e 110 875
e 110 599
e 110 630
e 110 923
e 111 498
e 111 603
e 112 685
e 112 783
e 112 271
e 113 528
e 113 441
e 113 990
e 113 491
e 113 401
e 114 447
e 114 528
e 114 975
e 115 676
e 115 239
e 116 414
e 116 597
e 116 955
e 117 327
e 117 262
e 117 143
e 118 473
e 118 759
e 118 748
e 118 681
e 118 789
e 119 476
e 119 730
e 119 547
e 119 124
e 119 628
e 119 630
e 120 254
e 120 623
e 120 424
e 121 501
e 121 783
e 121 455
e 121 763
e 121 334
e 123 501
e 123 436
e 123 402
e 124 849
e 124 300
e 124 291
e 124 216
e 124 228
e 124 587
e 125 608
e 125 503
e 125 168
e 125 337
e 126 857
e 126 882
e 126 823
e 126 873
e 126 524
e 127 730
e 127 318
e 127 495
e 127 405
e 127 578
e 127 465
e 127 713
e 127 374
e 127 520
e 128 768
e 128 356
e 129 629
e 129 920
e 130 580
e 130 893
e 130 523
e 130 453
e 130 601
e 130 685
e 130 584
e 132 894
e 132 591
e 132 583
e 132 541
e 135 778
e 135 462
e 135 423
e 137 672
e 137 469
e 137 928
e 137 293
e 137 804
e 137 680
e 138 186
e 138 487
e 138 566
e 138 683
e 138 760
e 138 987
e 139 304
e 139 196
e 139 784
e 140 216
e 140 196
e 140 647
e 141 532
e 141 935
e 141 737
e 141 197
e 142 967
e 142 972
e 143 156
e 143 558
e 143 346
e 146 672
e 146 334
e 147 633
e 147 595
e 148 683
e 148 447
e 148 736
e 150 987
e 150 216
e 150 360
e 150 488
e 150 313
e 151 173
e 151 920
e 151 791
e 151 636
e 155 276
e 155 331
e 155 982
e 155 757
e 155 681
e 156 967
e 156 169
e 156 738
e 157 402
e 157 939
e 157 537
e 157 417
e 158 969
e 158 256
e 159 772
e 159 916
e 159 601
e 159 808
e 160 612
e 160 464
e 160 567
e 162 723
e 162 253
e 162 719
e 162 697
e 162 957
e 164 587
e 164 700
e 164 510
e 164 731
e 164 475
e 164 490
e 167 302
e 167 484
e 167 568
e 168 353
e 168 530
e 168 318
e 169 743
e 169 468
e 170 330
e 170 681
e 170 578
e 171 686
e 171 469
e 171 692
e 171 417
e 171 174
e 172 967
e 172 868
e 172 473
e 172 504
e 173 988
e 173 632
e 173 685
e 173 820
e 174 754
e 174 680
e 175 271
e 175 564
e 175 635
e 177 584
e 177 451
e 177 481
e 177 507
e 179 576
e 179 675
e 180 225
e 180 680
e 180 993
e 180 842
e 181 707
e 181 743
e 181 241
e 181 365
e 182 692
e 182 672
e 182 519
e 182 381
e 183 955
e 183 926
e 184 783
e 184 228
e 184 431
e 184 367
e 184 301
e 186 405
e 186 662
e 187 997
e 187 556
e 187 449
e 187 941
e 188 523
e 188 247
e 188 288
e 188 682
e 189 595
e 189 541
e 190 585
e 190 505
e 190 250
e 190 839
e 191 601
e 191 820
e 191 459
e 193 920
e 193 490
e 196 460
e 196 948
e 197 444
e 197 281
e 197 636
e 197 757
e 198 747
e 198 955
e 198 323
e 198 270
e 203 542
e 203 676
e 205 760
e 205 882
e 205 963
e 206 516
e 206 414
e 207 735
e 207 903
e 207 287
e 207 809
e 208 866
e 208 583
e 208 571
e 209 807
e 209 808
e 215 230
e 215 570
e 215 939
e 216 454
e 216 937
e 219 245
e 219 587
e 219 571
e 220 901
e 220 381
e 220 575
e 223 696
e 223 235
e 223 291
e 223 697
e 223 730
e 224 566
e 224 863
e 224 458
e 224 491
e 225 988
e 225 956
e 227 928
e 227 549
e 227 431
e 227 383
e 229 854
e 229 922
e 229 427
e 230 958
e 230 305
e 230 996
e 230 402
e 231 847
e 231 891
e 231 308
e 231 595
e 231 647
e 232 826
e 232 545
e 232 574
e 232 678
e 232 893
e 234 664
e 234 726
e 234 560
e 235 1000
e 235 955
e 235 601
e 236 680
e 236 241
e 236 804
e 238 428
e 238 362
e 238 684
e 238 551
e 238 533
e 238 507
e 238 570
e 238 896
e 239 691
e 239 721
e 239 662
e 239 832
e 240 791
e 240 498
e 240 568
e 240 394
e 241 897
e 242 987
e 242 953
e 243 446
e 243 465
e 243 730
e 245 388
e 245 964
e 246 483
e 246 472
e 246 885
e 246 722
e 247 442
e 247 631
e 248 942
e 248 442
e 248 552
e 250 875
e 250 305
e 250 805
e 251 586
e 251 931
e 251 923
e 251 619
e 252 381
e 252 620
e 252 788
e 252 402
e 252 996
e 253 678
e 253 473
e 253 594
e 254 996
e 254 295
e 254 292
e 254 606
e 254 346
e 254 495
e 255 511
e 255 268
e 255 413
e 255 446
e 256 899
e 256 415
e 256 900
e 257 318
e 257 704
e 257 819
e 258 921
e 258 537
e 258 393
e 260 561
e 260 574
e 260 416
e 260 921
e 260 516
e 260 528
e 260 383
e 262 467
e 262 457
e 262 617
e 262 590
e 265 761
e 265 931
e 267 824
e 267 521
e 267 330
e 268 960
e 268 823
e 268 406
e 268 948
e 270 331
e 271 461
e 271 830
e 272 754
e 272 407
e 272 790
e 272 520
e 272 444
e 272 887
e 273 680
e 273 807
e 273 305
e 274 381
e 274 945
e 275 988
e 275 536
e 275 992
e 275 798
e 275 761
e 276 347
e 276 606
e 276 444
e 276 828
e 276 992
e 276 697
e 276 320
e 276 857
e 278 310
e 278 634
e 278 431
e 281 992
e 281 518
e 281 338
e 282 633
e 282 577
e 282 664
e 282 940
e 283 863
e 283 894
e 283 811
e 283 836
e 283 662
e 286 769
e 286 498
e 286 684
e 287 662
e 287 401
e 287 357
e 287 952
e 287 523
e 288 617
e 288 568
e 288 369
e 288 664
e 288 528
e 289 352
e 289 666
e 289 569
e 289 679
e 291 638
e 291 983
e 291 828
e 292 763
e 292 380
e 292 872
e 293 317
e 293 345
e 293 497
e 293 830
e 294 679
e 294 794
e 294 595
e 294 464
e 294 583
e 295 746
e 295 327
e 295 850
e 295 840
e 295 995
e 295 365
e 296 552
e 296 952
e 296 551
e 296 391
e 297 731
e 297 543
e 299 405
e 299 615
e 299 860
e 299 809
e 299 884
e 300 790
e 301 502
e 301 526
e 301 566
e 301 869
e 301 681
e 302 569
e 302 790
e 302 507
e 302 735
e 302 885
e 302 733
e 304 352
e 304 433
e 304 452
e 304 812
e 305 390
e 305 960
e 308 708
e 308 603
e 308 866
e 310 876
e 310 463
e 310 498
e 310 749
e 310 567
e 310 327
e 313 337
e 313 920
e 313 846
e 316 534
e 316 524
e 316 532
e 316 464
e 317 396
e 317 961
e 317 433
e 318 656
e 319 942
e 319 570
e 319 975
e 320 431
e 320 760
e 320 447
e 321 920
e 321 864
e 321 405
e 321 979
e 321 927
e 322 452
e 322 738
e 322 545
e 322 908
e 323 500
e 323 882
e 323 850
e 323 437
e 323 690
e 323 955
e 324 569
e 324 934
e 324 418
e 324 489
e 324 928
e 328 732
e 328 638
e 328 583
e 328 416
e 328 909
e 329 810
e 329 626
e 329 963
e 330 813
e 330 382
e 330 808
e 330 682
e 331 813
e 331 540
e 331 488
e 331 624
e 333 601
e 333 468
e 333 705
e 333 521
e 334 595
e 334 418
e 334 524
e 335 419
e 335 487
e 335 881
e 336 556
e 336 512
e 336 839
e 337 348
e 337 811
e 337 971
e 337 763
e 338 660
e 338 457
e 338 866
e 338 489
e 341 905
e 341 433
e 341 480
e 341 488
e 343 764
e 344 597
e 344 871
e 344 422
e 345 881
e 345 373
e 345 747
e 346 500
e 347 865
e 347 826
e 347 785
e 348 624
e 348 510
e 349 619
e 349 848
e 349 965
e 349 979
e 350 940
e 350 868
e 350 704
e 350 584
e 351 391
e 351 791
e 351 540
e 351 514
e 351 537
e 351 521
e 351 611
e 351 894
e 352 534
e 353 383
e 353 870
e 353 703
e 356 842
e 356 857
e 356 971
e 356 522
e 356 716
e 357 384
e 357 437
e 357 862
e 360 867
e 360 893
e 360 792
e 360 982
e 361 634
e 361 555
e 361 903
e 362 563
e 362 987
e 362 996
e 362 396
e 362 465
e 362 986
e 365 966
e 365 597
e 365 471
e 365 932
e 366 505
e 366 440
e 366 868
e 367 502
e 367 930
e 369 585
e 369 590
e 369 759
e 373 958
e 373 718
e 373 819
e 373 871
e 374 597
e 374 578
e 375 835
e 375 811
e 375 389
e 376 916
e 376 933
e 376 418
e 376 906
e 376 531
e 376 884
e 379 586
e 379 787
e 379 526
e 379 601
e 380 899
e 380 935
e 380 933
e 380 525
e 381 824
e 381 736
e 381 956
e 381 415
e 381 511
e 382 868
e 382 993
e 383 746
e 383 476
e 383 866
e 384 646
e 384 456
e 385 551
e 385 429
e 388 998
e 388 722
e 389 691
e 390 457
e 390 405
e 390 629
e 390 456
e 391 841
e 391 480
e 391 415
e 393 946
e 393 997
e 394 757
e 394 417
e 394 995
e 396 579
e 396 552
e 396 828
e 401 730
e 401 899
e 402 463
e 402 907
e 403 883
e 403 972
e 403 927
e 405 869
e 405 578
e 406 678
e 406 930
e 406 896
e 407 714
e 407 781
e 407 847
e 408 760
e 408 623
e 408 528
e 409 934
e 409 580
e 409 814
e 409 589
e 410 939
e 410 652
e 410 633
e 413 960
e 414 892
e 414 431
e 414 743
e 416 953
e 416 605
e 416 518
e 418 529
e 419 647
e 419 839
e 419 716
e 420 603
e 420 979
e 420 595
e 420 824
e 420 917
e 422 612
e 422 704
e 422 952
e 423 730
e 423 848
e 424 440
e 424 699
e 424 481
e 425 986
e 425 836
e 425 911
e 426 628
e 426 505
e 426 942
e 427 979
e 427 454
e 427 481
e 428 852
e 428 832
e 428 730
e 428 442
e 429 519
e 429 452
e 429 841
e 431 587
e 431 900
e 431 683
e 431 434
e 431 543
e 433 832
e 433 732
e 434 689
e 434 828
e 434 993
e 434 998
e 434 593
e 436 814
e 436 486
e 436 550
e 437 534
e 437 719
e 440 484
e 441 835
e 441 856
e 442 789
e 442 854
e 442 905
e 442 961
e 444 972
e 444 950
e 446 447
e 446 597
e 447 454
e 448 939
e 448 453
e 448 794
e 449 522
e 449 525
e 449 549
e 449 785
e 450 820
e 450 664
e 450 927
e 451 485
e 451 500
e 451 923
e 451 652
e 452 568
e 452 754
e 452 917
e 452 782
e 453 564
e 453 966
e 453 507
e 453 548
e 453 472
e 454 921
e 455 552
e 456 703
e 457 751
e 457 895
e 457 992
e 458 553
e 458 757
e 459 810
e 459 496
e 459 764
e 460 691
e 460 798
e 460 566
e 461 807
e 462 700
e 462 969
e 462 529
e 462 938
e 462 881
e 463 992
e 463 703
e 464 940
e 464 875
e 465 896
e 465 701
e 466 995
e 466 977
e 466 499
e 466 692
e 467 818
e 467 904
e 468 617
e 468 904
e 468 730
e 469 931
e 469 971
e 471 542
e 471 683
e 471 956
e 472 528
e 472 866
e 473 922
e 473 520
e 475 776
e 475 574
e 476 865
e 476 734
e 476 975
e 476 705
e 481 510
e 481 854
e 481 932
e 481 593
e 481 606
e 481 770
e 483 660
e 483 703
e 483 786
e 484 756
e 484 904
e 485 856
e 485 895
e 486 832
e 486 792
e 487 698
e 487 566
e 487 864
e 488 713
e 488 631
e 488 579
e 488 760
e 488 983
e 489 817
e 489 728
e 490 589
e 490 493
e 490 583
e 491 679
e 491 707
e 491 816
e 491 906
e 492 916
e 493 545
e 493 746
e 495 496
e 495 540
e 496 743
e 496 518
e 497 719
e 497 708
e 498 795
e 499 579
e 499 603
e 499 801
e 499 856
e 500 782
e 500 783
e 500 748
e 500 867
e 500 852
e 500 942
e 501 591
e 501 712
e 501 806
e 501 692
e 502 726
e 503 786
e 504 736
e 505 798
e 507 888
e 507 824
e 507 803
e 508 702
e 508 839
e 508 853
e 510 953
e 510 906
e 511 638
e 511 704
e 511 926
e 512 702
e 512 660
e 512 930
e 514 525
e 514 875
e 516 721
e 516 946
e 516 932
e 518 531
e 519 812
e 519 750
e 519 865
e 520 781
e 521 668
e 521 937
e 521 661
e 521 900
e 522 608
e 522 872
e 523 737
e 524 605
e 524 626
e 524 776
e 525 552
e 525 529
e 526 920
e 526 692
e 526 839
e 528 910
e 528 656
e 529 615
e 529 567
e 530 721
e 530 571
e 531 563
e 532 619
e 532 759
e 533 794
e 533 875
e 535 863
e 535 743
e 535 881
e 536 850
e 536 652
e 537 554
e 537 938
e 537 544
e 539 608
e 539 719
e 539 730
e 539 752
e 539 637
e 539 869
e 539 917
e 540 953
e 541 799
e 541 615
e 542 615
e 542 931
e 543 664
e 544 733
e 544 1000
e 544 576
e 544 700
e 545 749
e 547 735
e 548 769
e 548 600
e 550 894
e 550 635
e 551 689
e 551 554
e 552 609
e 552 795
e 552 771
e 553 702
e 554 854
e 555 872
e 555 558
e 556 839
e 556 993
e 557 832
e 557 560
e 557 881
e 557 816
e 558 760
e 558 877
e 559 782
e 559 928
e 559 888
e 560 661
e 560 711
e 560 950
e 561 936
e 561 684
e 561 893
e 561 996
e 563 939
e 563 817
e 563 590
e 563 754
e 564 932
e 564 870
e 566 569
e 566 629
e 567 833
e 567 812
e 567 771
e 567 699
e 567 935
e 568 691
e 569 702
e 570 666
e 570 766
e 570 864
e 570 704
e 571 590
e 571 705
e 574 750
e 574 620
e 575 911
e 575 953
e 576 718
e 576 630
e 576 900
e 577 799
e 577 812
e 578 579
e 578 814
e 578 987
e 581 921
e 581 840
e 581 908
e 582 892
e 582 595
e 583 688
e 583 617
e 583 893
e 583 711
e 584 705
e 585 780
e 585 949
e 585 620
e 586 939
e 586 620
e 586 762
e 587 681
e 587 833
e 589 766
e 590 749
e 591 870
e 591 895
e 591 728
e 593 759
e 593 892
e 593 637
e 593 960
e 593 714
e 593 660
e 594 923
e 594 814
e 594 865
e 595 778
e 597 852
e 597 967
e 597 721
e 599 964
e 599 869
e 600 656
e 600 606
e 600 811
e 601 929
e 601 901
e 603 877
e 603 675
e 603 876
e 605 930
e 608 897
e 609 990
e 609 803
e 611 887
e 611 737
e 615 888
e 615 784
e 615 863
e 617 772
e 619 809
e 619 810
e 619 897
e 620 944
e 620 927
e 623 923
e 624 704
e 625 945
e 625 753
e 626 684
e 626 753
e 626 788
e 628 681
e 629 780
e 630 687
e 631 740
e 631 670
e 632 785
e 632 982
e 633 909
e 634 920
e 635 660
e 636 694
e 637 853
e 637 714
e 637 662
e 638 690
e 638 817
e 638 815
e 638 895
e 640 696
e 640 712
e 642 812
e 642 849
e 642 864
e 642 644
e 644 723
e 644 945
e 644 950
e 646 937
e 646 893
e 646 719
e 646 877
e 647 846
e 647 923
e 652 808
e 661 905
e 661 818
e 663 1000
e 664 801
e 666 704
e 666 977
e 666 762
e 668 930
e 668 961
e 670 683
e 672 682
e 675 694
e 676 936
e 678 765
e 679 804
e 679 697
e 681 849
e 682 969
e 682 957
e 682 787
e 684 812
e 686 718
e 686 933
e 686 948
e 688 738
e 688 988
e 689 706
e 689 867
e 690 945
e 690 781
e 690 763
e 691 705
e 691 756
e 694 751
e 696 732
e 698 949
e 698 892
e 699 990
e 700 870
e 700 901
e 700 794
e 701 708
e 701 750
e 702 881
e 702 986
e 703 988
e 704 733
e 705 920
e 705 833
e 705 911
e 706 877
e 706 790
e 708 877
e 708 943
e 711 716
e 712 930
e 713 734
e 713 737
e 713 899
e 716 952
e 716 893
e 718 910
e 719 956
e 719 936
e 721 873
e 721 734
e 722 763
e 723 736
e 723 992
e 726 894
e 726 922
e 728 963
e 733 845
e 733 883
e 735 765
e 736 853
e 736 747
e 738 787
e 739 933
e 739 964
e 739 772
e 740 795
e 740 811
e 743 944
e 743 932
e 743 975
e 743 887
e 746 939
e 746 941
e 747 751
e 747 967
e 748 780
e 748 983
e 748 841
e 748 871
e 750 835
e 752 753
e 752 877
e 754 810
e 757 839
e 760 958
e 760 787
e 761 873
e 762 892
e 763 871
e 764 972
e 764 938
e 764 1000
e 765 933
e 766 811
e 768 860
e 768 917
e 769 816
e 770 944
e 770 967
e 772 955
e 772 842
e 772 965
e 776 963
e 778 798
e 778 867
e 780 892
e 783 946
e 783 930
e 784 786
e 785 995
e 787 790
e 787 936
e 788 842
e 788 808
e 789 901
e 789 896
e 791 808
e 792 939
e 794 873
e 794 845
e 803 814
e 804 847
e 805 899
e 806 849
e 806 955
e 807 815
e 810 972
e 811 995
e 811 903
e 811 957
e 811 893
e 813 935
e 814 950
e 814 934
e 814 826
e 815 952
e 816 872
e 816 858
e 817 873
e 818 849
e 819 952
e 819 938
e 820 864
e 823 931
e 823 929
e 824 949
e 824 842
e 824 911
e 832 956
e 833 926
e 833 963
e 836 964
e 836 970
e 836 894
e 839 895
e 840 963
e 841 986
e 841 845
e 841 895
e 845 884
e 847 966
e 847 940
e 848 866
e 848 904
e 848 862
e 853 992
e 853 961
e 862 972
e 862 956
e 866 937
e 870 939
e 871 891
e 872 883
e 875 884
e 876 956
e 877 987
e 883 893
e 884 899
e 885 965
e 888 907
e 888 972
e 891 990
e 892 956
e 892 957
e 897 910
e 901 931
e 907 966
e 908 909
e 908 944
e 908 979
e 916 950
e 917 983
e 927 942
e 931 990
e 932 969
e 933 939
e 935 995
e 952 963
e 970 998
