txt_Ins/graph-1000-970.txt
n 1000
e 1 58
e 1 321
e 1 98
e 3 737
e 3 683
e 3 149
e 3 502
e 4 859
e 4 515
e 4 905
e 5 180
e 5 342
e 5 965
e 5 546
e 5 447
e 5 616
e 5 197
e 5 852
e 6 435
e 6 862
e 6 807
e 6 15
e 6 124
e 6 941
e 6 847
e 6 491
e 7 559
e 7 233
e 7 655
e 8 112
e 8 780
e 8 688
e 8 275
e 9 281
e 9 985
e 9 592
e 9 852
e 9 541
e 11 464
e 11 805
e 11 663
e 11 765
e 11 342
e 12 244
e 12 208
e 12 503
e 12 570
e 12 118
e 12 126
e 15 857
e 15 334
e 15 492
e 15 530
e 15 686
e 15 555
e 15 637
e 16 34
e 16 794
e 16 235
e 16 86
e 16 669
e 19 698
e 19 614
e 19 976
e 19 969
e 19 326
e 19 547
e 20 329
e 20 401
e 20 155
e 21 446
e 21 940
e 21 490
e 21 844
e 21 186
e 21 299
e 23 106
e 23 241
e 23 296
e 24 44
e 24 227
e 24 981
e 24 928
e 24 630
e 25 273
e 25 436
e 25 100
e 25 28
e 28 445
e 28 510
e 28 618
e 29 592
e 29 488
e 29 590
e 30 662
e 30 105
e 30 629
e 31 67
e 31 491
e 31 349
e 31 412
e 32 769
e 32 532
e 32 662
e 33 455
e 33 518
e 33 336
e 34 337
e 34 466
e 34 48
e 34 798
e 34 583
e 34 395
e 36 770
e 36 37
e 36 793
e 36 798
e 36 758
e 37 883
e 37 261
e 38 418
e 38 942
e 38 277
e 38 769
e 39 271
e 39 604
e 39 145
e 40 636
e 40 532
e 40 189
e 42 384
e 42 479
e 42 861
e 42 497
e 44 495
e 44 62
e 44 114
e 46 548
e 46 942
e 46 269
e 47 755
e 47 749
e 47 501
e 47 110
e 48 318
e 48 426
e 48 838
e 48 899
e 52 856
e 52 783
e 52 474
e 52 108
e 54 253
e 54 548
e 54 894
e 54 78
e 54 927
e 55 426
e 55 646
e 55 406
e 57 760
e 57 576
e 57 812
e 57 884
e 58 730
e 58 388
e 58 373
e 58 381
e 59 583
e 59 192
e 59 146
e 59 585
e 59 241
e 59 115
e 61 903
e 61 548
e 61 857
e 62 706
e 62 273
e 63 735
e 63 336
e 63 529
e 65 93
e 65 157
e 65 957
e 65 800
e 65 804
e 65 645
e 66 528
e 66 540
e 66 511
e 67 281
e 67 705
e 67 636
e 67 113
e 68 974
e 68 459
e 68 234
e 68 202
e 68 544
e 68 957
e 68 548
e 68 451
e 68 188
e 69 892
e 69 611
e 69 286
e 69 459
e 70 816
e 70 818
e 70 463
e 70 74
e 70 356
e 70 413
e 70 639
e 71 347
e 71 690
e 71 555
e 71 753
e 72 373
e 72 677
e 72 492
e 72 205
e 72 930
e 73 720
e 73 579
e 73 823
e 74 786
e 74 880
e 74 530
e 74 471
e 74 295
e 74 823
e 74 507
e 74 705
e 74 624
e 78 808
e 78 136
e 78 943
e 79 454
e 79 930
e 79 636
e 79 421
e 79 281
e 79 829
e 79 127
e 79 720
e 80 168
e 80 134
e 80 264
e 80 342
e 80 767
e 80 150
e 81 483
e 81 141
e 81 182
e 81 91
e 82 170
e 82 303
e 82 182
e 82 149
e 84 802
e 84 764
e 84 551
e 84 992
e 85 829
e 85 178
e 85 968
e 85 458
e 85 578
e 86 98
e 86 470
e 86 706
e 89 845
e 89 690
e 89 667
e 90 971
e 90 908
e 90 490
e 90 992
e 91 226
e 91 865
e 91 948
e 93 510
e 93 581
e 93 407
e 93 632
e 94 326
e 94 867
e 94 511
e 94 987
e 95 255
e 95 846
e 95 332
e 98 392
e 98 643
e 98 552
e 99 712
e 99 312
e 99 817
e 100 119
e 100 568
e 100 762
e 100 727
e 100 883
e 101 966
e 101 122
e 101 543
e 101 197
e 103 952
e 103 113
e 103 568
e 103 460
e 105 470
e 105 932
e 105 920
e 106 996
e 106 686
e 106 264
e 106 902
e 106 544
e 106 207
e 107 793
e 107 530
e 107 345
e 107 424
e 108 128
e 108 166
e 108 412
e 108 185
e 109 874
e 109 598
e 109 629
e 109 922
e 110 497
e 110 602
e 111 684
e 111 782
e 111 270
e 112 527
e 112 440
e 112 989
e 112 490
e 112 400
e 113 446
e 113 527
e 113 974
e 114 675
e 114 238
e 115 413
e 115 596
e 115 954
e 116 326
e 116 261
e 116 142
e 117 472
e 117 758
e 117 747
e 117 680
e 117 788
e 118 475
e 118 729
e 118 546
e 118 123
e 118 627
e 118 629
e 119 253
e 119 622
e 119 423
e 120 500
e 120 782
e 120 454
e 120 762
e 120 333
e 122 500
e 122 435
e 122 401
e 123 848
e 123 299
e 123 290
e 123 215
e 123 227
e 123 586
e 124 607
e 124 502
e 124 167
e 124 336
e 125 856
e 125 881
e 125 822
e 125 872
e 125 523
e 126 729
e 126 317
e 126 494
e 126 404
e 126 577
e 126 464
e 126 712
e 126 373
e 126 519
e 127 767
e 127 355
e 128 628
e 128 919
e 129 579
e 129 892
e 129 522
e 129 452
e 129 600
e 129 684
e 129 583
e 131 893
e 131 590
e 131 582
e 131 540
e 134 777
e 134 461
e 134 422
e 136 671
e 136 468
e 136 927
e 136 292
e 136 803
e 136 679
e 137 185
e 137 486
e 137 565
e 137 682
e 137 759
e 137 986
e 138 303
e 138 195
e 138 783
e 139 215
e 139 195
e 139 646
e 140 531
e 140 934
e 140 736
e 140 196
e 141 966
e 141 971
e 142 155
e 142 557
e 142 345
e 145 671
e 145 333
e 146 632
e 146 594
e 147 682
e 147 446
e 147 735
e 149 986
e 149 215
e 149 359
e 149 487
e 149 312
e 150 172
e 150 919
e 150 790
e 150 635
e 154 275
e 154 330
e 154 981
e 154 756
e 154 680
e 155 966
e 155 168
e 155 737
e 156 401
e 156 938
e 156 536
e 156 416
e 157 968
e 157 255
e 158 771
e 158 915
e 158 600
e 158 807
e 159 611
e 159 463
e 159 566
e 161 722
e 161 252
e 161 718
e 161 696
e 161 956
e 163 586
e 163 699
e 163 509
e 163 730
e 163 474
e 163 489
e 166 301
e 166 483
e 166 567
e 167 352
e 167 529
e 167 317
e 168 742
e 168 467
e 169 329
e 169 680
e 169 577
e 170 685
e 170 468
e 170 691
e 170 416
e 170 173
e 171 966
e 171 867
e 171 472
e 171 503
e 172 987
e 172 631
e 172 684
e 172 819
e 173 753
e 173 679
e 174 270
e 174 563
e 174 634
e 176 583
e 176 450
e 176 480
e 176 506
e 178 575
e 178 674
e 179 224
e 179 679
e 179 992
e 179 841
e 180 706
e 180 742
e 180 240
e 180 364
e 181 691
e 181 671
e 181 518
e 181 380
e 182 954
e 182 925
e 183 782
e 183 227
e 183 430
e 183 366
e 183 300
e 185 404
e 185 661
e 186 996
e 186 555
e 186 448
e 186 940
e 187 522
e 187 246
e 187 287
e 187 681
e 188 594
e 188 540
e 189 584
e 189 504
e 189 249
e 189 838
e 190 600
e 190 819
e 190 458
e 192 919
e 192 489
e 195 459
e 195 947
e 196 443
e 196 280
e 196 635
e 196 756
e 197 746
e 197 954
e 197 322
e 197 269
e 202 541
e 202 675
e 204 759
e 204 881
e 204 962
e 205 515
e 205 413
e 206 734
e 206 902
e 206 286
e 206 808
e 207 865
e 207 582
e 207 570
e 208 806
e 208 807
e 214 229
e 214 569
e 214 938
e 215 453
e 215 936
e 218 244
e 218 586
e 218 570
e 219 900
e 219 380
e 219 574
e 222 695
e 222 234
e 222 290
e 222 696
e 222 729
e 223 565
e 223 862
e 223 457
e 223 490
e 224 987
e 224 955
e 226 927
e 226 548
e 226 430
e 226 382
e 228 853
e 228 921
e 228 426
e 229 957
e 229 304
e 229 995
e 229 401
e 230 846
e 230 890
e 230 307
e 230 594
e 230 646
e 231 825
e 231 544
e 231 573
e 231 677
e 231 892
e 233 663
e 233 725
e 233 559
e 234 999
e 234 954
e 234 600
e 235 679
e 235 240
e 235 803
e 237 427
e 237 361
e 237 683
e 237 550
e 237 532
e 237 506
e 237 569
e 237 895
e 238 690
e 238 720
e 238 661
e 238 831
e 239 790
e 239 497
e 239 567
e 239 393
e 240 896
e 241 986
e 241 952
e 242 445
e 242 464
e 242 729
e 244 387
e 244 963
e 245 482
e 245 471
e 245 884
e 245 721
e 246 441
e 246 630
e 247 941
e 247 441
e 247 551
e 249 874
e 249 304
e 249 804
e 250 585
e 250 930
e 250 922
e 250 618
e 251 380
e 251 619
e 251 787
e 251 401
e 251 995
e 252 677
e 252 472
e 252 593
e 253 995
e 253 294
e 253 291
e 253 605
e 253 345
e 253 494
e 254 510
e 254 267
e 254 412
e 254 445
e 255 898
e 255 414
e 255 899
e 256 317
e 256 703
e 256 818
e 257 920
e 257 536
e 257 392
e 259 560
e 259 573
e 259 415
e 259 920
e 259 515
e 259 527
e 259 382
e 261 466
e 261 456
e 261 616
e 261 589
e 264 760
e 264 930
e 266 823
e 266 520
e 266 329
e 267 959
e 267 822
e 267 405
e 267 947
e 269 330
e 270 460
e 270 829
e 271 753
e 271 406
e 271 789
e 271 519
e 271 443
e 271 886
e 272 679
e 272 806
e 272 304
e 273 380
e 273 944
e 274 987
e 274 535
e 274 991
e 274 797
e 274 760
e 275 346
e 275 605
e 275 443
e 275 827
e 275 991
e 275 696
e 275 319
e 275 856
e 277 309
e 277 633
e 277 430
e 280 991
e 280 517
e 280 337
e 281 632
e 281 576
e 281 663
e 281 939
e 282 862
e 282 893
e 282 810
e 282 835
e 282 661
e 285 768
e 285 497
e 285 683
e 286 661
e 286 400
e 286 356
e 286 951
e 286 522
e 287 616
e 287 567
e 287 368
e 287 663
e 287 527
e 288 351
e 288 665
e 288 568
e 288 678
e 290 637
e 290 982
e 290 827
e 291 762
e 291 379
e 291 871
e 292 316
e 292 344
e 292 496
e 292 829
e 293 678
e 293 793
e 293 594
e 293 463
e 293 582
e 294 745
e 294 326
e 294 849
e 294 839
e 294 994
e 294 364
e 295 551
e 295 951
e 295 550
e 295 390
e 296 730
e 296 542
e 298 404
e 298 614
e 298 859
e 298 808
e 298 883
e 299 789
e 300 501
e 300 525
e 300 565
e 300 868
e 300 680
e 301 568
e 301 789
e 301 506
e 301 734
e 301 884
e 301 732
e 303 351
e 303 432
e 303 451
e 303 811
e 304 389
e 304 959
e 307 707
e 307 602
e 307 865
e 309 875
e 309 462
e 309 497
e 309 748
e 309 566
e 309 326
e 312 336
e 312 919
e 312 845
e 315 533
e 315 523
e 315 531
e 315 463
e 316 395
e 316 960
e 316 432
e 317 655
e 318 941
e 318 569
e 318 974
e 319 430
e 319 759
e 319 446
e 320 919
e 320 863
e 320 404
e 320 978
e 320 926
e 321 451
e 321 737
e 321 544
e 321 907
e 322 499
e 322 881
e 322 849
e 322 436
e 322 689
e 322 954
e 323 568
e 323 933
e 323 417
e 323 488
e 323 927
e 327 731
e 327 637
e 327 582
e 327 415
e 327 908
e 328 809
e 328 625
e 328 962
e 329 812
e 329 381
e 329 807
e 329 681
e 330 812
e 330 539
e 330 487
e 330 623
e 332 600
e 332 467
e 332 704
e 332 520
e 333 594
e 333 417
e 333 523
e 334 418
e 334 486
e 334 880
e 335 555
e 335 511
e 335 838
e 336 347
e 336 810
e 336 970
e 336 762
e 337 659
e 337 456
e 337 865
e 337 488
e 340 904
e 340 432
e 340 479
e 340 487
e 342 763
e 343 596
e 343 870
e 343 421
e 344 880
e 344 372
e 344 746
e 345 499
e 346 864
e 346 825
e 346 784
e 347 623
e 347 509
e 348 618
e 348 847
e 348 964
e 348 978
e 349 939
e 349 867
e 349 703
e 349 583
e 350 390
e 350 790
e 350 539
e 350 513
e 350 536
e 350 520
e 350 610
e 350 893
e 351 533
e 352 382
e 352 869
e 352 702
e 355 841
e 355 856
e 355 970
e 355 521
e 355 715
e 356 383
e 356 436
e 356 861
e 359 866
e 359 892
e 359 791
e 359 981
e 360 633
e 360 554
e 360 902
e 361 562
e 361 986
e 361 995
e 361 395
e 361 464
e 361 985
e 364 965
e 364 596
e 364 470
e 364 931
e 365 504
e 365 439
e 365 867
e 366 501
e 366 929
e 368 584
e 368 589
e 368 758
e 372 957
e 372 717
e 372 818
e 372 870
e 373 596
e 373 577
e 374 834
e 374 810
e 374 388
e 375 915
e 375 932
e 375 417
e 375 905
e 375 530
e 375 883
e 378 585
e 378 786
e 378 525
e 378 600
e 379 898
e 379 934
e 379 932
e 379 524
e 380 823
e 380 735
e 380 955
e 380 414
e 380 510
e 381 867
e 381 992
e 382 745
e 382 475
e 382 865
e 383 645
e 383 455
e 384 550
e 384 428
e 387 997
e 387 721
e 388 690
e 389 456
e 389 404
e 389 628
e 389 455
e 390 840
e 390 479
e 390 414
e 392 945
e 392 996
e 393 756
e 393 416
e 393 994
e 395 578
e 395 551
e 395 827
e 400 729
e 400 898
e 401 462
e 401 906
e 402 882
e 402 971
e 402 926
e 404 868
e 404 577
e 405 677
e 405 929
e 405 895
e 406 713
e 406 780
e 406 846
e 407 759
e 407 622
e 407 527
e 408 933
e 408 579
e 408 813
e 408 588
e 409 938
e 409 651
e 409 632
e 412 959
e 413 891
e 413 430
e 413 742
e 415 952
e 415 604
e 415 517
e 417 528
e 418 646
e 418 838
e 418 715
e 419 602
e 419 978
e 419 594
e 419 823
e 419 916
e 421 611
e 421 703
e 421 951
e 422 729
e 422 847
e 423 439
e 423 698
e 423 480
e 424 985
e 424 835
e 424 910
e 425 627
e 425 504
e 425 941
e 426 978
e 426 453
e 426 480
e 427 851
e 427 831
e 427 729
e 427 441
e 428 518
e 428 451
e 428 840
e 430 586
e 430 899
e 430 682
e 430 433
e 430 542
e 432 831
e 432 731
e 433 688
e 433 827
e 433 992
e 433 997
e 433 592
e 435 813
e 435 485
e 435 549
e 436 533
e 436 718
e 439 483
e 440 834
e 440 855
e 441 788
e 441 853
e 441 904
e 441 960
e 443 971
e 443 949
e 445 446
e 445 596
e 446 453
e 447 938
e 447 452
e 447 793
e 448 521
e 448 524
e 448 548
e 448 784
e 449 819
e 449 663
e 449 926
e 450 484
e 450 499
e 450 922
e 450 651
e 451 567
e 451 753
e 451 916
e 451 781
e 452 563
e 452 965
e 452 506
e 452 547
e 452 471
e 453 920
e 454 551
e 455 702
e 456 750
e 456 894
e 456 991
e 457 552
e 457 756
e 458 809
e 458 495
e 458 763
e 459 690
e 459 797
e 459 565
e 460 806
e 461 699
e 461 968
e 461 528
e 461 937
e 461 880
e 462 991
e 462 702
e 463 939
e 463 874
e 464 895
e 464 700
e 465 994
e 465 976
e 465 498
e 465 691
e 466 817
e 466 903
e 467 616
e 467 903
e 467 729
e 468 930
e 468 970
e 470 541
e 470 682
e 470 955
e 471 527
e 471 865
e 472 921
e 472 519
e 474 775
e 474 573
e 475 864
e 475 733
e 475 974
e 475 704
e 480 509
e 480 853
e 480 931
e 480 592
e 480 605
e 480 769
e 482 659
e 482 702
e 482 785
e 483 755
e 483 903
e 484 855
e 484 894
e 485 831
e 485 791
e 486 697
e 486 565
e 486 863
e 487 712
e 487 630
e 487 578
e 487 759
e 487 982
e 488 816
e 488 727
e 489 588
e 489 492
e 489 582
e 490 678
e 490 706
e 490 815
e 490 905
e 491 915
e 492 544
e 492 745
e 494 495
e 494 539
e 495 742
e 495 517
e 496 718
e 496 707
e 497 794
e 498 578
e 498 602
e 498 800
e 498 855
e 499 781
e 499 782
e 499 747
e 499 866
e 499 851
e 499 941
e 500 590
e 500 711
e 500 805
e 500 691
e 501 725
e 502 785
e 503 735
e 504 797
e 506 887
e 506 823
e 506 802
e 507 701
e 507 838
e 507 852
e 509 952
e 509 905
e 510 637
e 510 703
e 510 925
e 511 701
e 511 659
e 511 929
e 513 524
e 513 874
e 515 720
e 515 945
e 515 931
e 517 530
e 518 811
e 518 749
e 518 864
e 519 780
e 520 667
e 520 936
e 520 660
e 520 899
e 521 607
e 521 871
e 522 736
e 523 604
e 523 625
e 523 775
e 524 551
e 524 528
e 525 919
e 525 691
e 525 838
e 527 909
e 527 655
e 528 614
e 528 566
e 529 720
e 529 570
e 530 562
e 531 618
e 531 758
e 532 793
e 532 874
e 534 862
e 534 742
e 534 880
e 535 849
e 535 651
e 536 553
e 536 937
e 536 543
e 538 607
e 538 718
e 538 729
e 538 751
e 538 636
e 538 868
e 538 916
e 539 952
e 540 798
e 540 614
e 541 614
e 541 930
e 542 663
e 543 732
e 543 999
e 543 575
e 543 699
e 544 748
e 546 734
e 547 768
e 547 599
e 549 893
e 549 634
e 550 688
e 550 553
e 551 608
e 551 794
e 551 770
e 552 701
e 553 853
e 554 871
e 554 557
e 555 838
e 555 992
e 556 831
e 556 559
e 556 880
e 556 815
e 557 759
e 557 876
e 558 781
e 558 927
e 558 887
e 559 660
e 559 710
e 559 949
e 560 935
e 560 683
e 560 892
e 560 995
e 562 938
e 562 816
e 562 589
e 562 753
e 563 931
e 563 869
e 565 568
e 565 628
e 566 832
e 566 811
e 566 770
e 566 698
e 566 934
e 567 690
e 568 701
e 569 665
e 569 765
e 569 863
e 569 703
e 570 589
e 570 704
e 573 749
e 573 619
e 574 910
e 574 952
e 575 717
e 575 629
e 575 899
e 576 798
e 576 811
e 577 578
e 577 813
e 577 986
e 580 920
e 580 839
e 580 907
e 581 891
e 581 594
e 582 687
e 582 616
e 582 892
e 582 710
e 583 704
e 584 779
e 584 948
e 584 619
e 585 938
e 585 619
e 585 761
e 586 680
e 586 832
e 588 765
e 589 748
e 590 869
e 590 894
e 590 727
e 592 758
e 592 891
e 592 636
e 592 959
e 592 713
e 592 659
e 593 922
e 593 813
e 593 864
e 594 777
e 596 851
e 596 966
e 596 720
e 598 963
e 598 868
e 599 655
e 599 605
e 599 810
e 600 928
e 600 900
e 602 876
e 602 674
e 602 875
e 604 929
e 607 896
e 608 989
e 608 802
e 610 886
e 610 736
e 614 887
e 614 783
e 614 862
e 616 771
e 618 808
e 618 809
e 618 896
e 619 943
e 619 926
e 622 922
e 623 703
e 624 944
e 624 752
e 625 683
e 625 752
e 625 787
e 627 680
e 628 779
e 629 686
e 630 739
e 630 669
e 631 784
e 631 981
e 632 908
e 633 919
e 634 659
e 635 693
e 636 852
e 636 713
e 636 661
e 637 689
e 637 816
e 637 814
e 637 894
e 639 695
e 639 711
e 641 811
e 641 848
e 641 863
e 641 643
e 643 722
e 643 944
e 643 949
e 645 936
e 645 892
e 645 718
e 645 876
e 646 845
e 646 922
e 651 807
e 660 904
e 660 817
e 662 999
e 663 800
e 665 703
e 665 976
e 665 761
e 667 929
e 667 960
e 669 682
e 671 681
e 674 693
e 675 935
e 677 764
e 678 803
e 678 696
e 680 848
e 681 968
e 681 956
e 681 786
e 683 811
e 685 717
e 685 932
e 685 947
e 687 737
e 687 987
e 688 705
e 688 866
e 689 944
e 689 780
e 689 762
e 690 704
e 690 755
e 693 750
e 695 731
e 697 948
e 697 891
e 698 989
e 699 869
e 699 900
e 699 793
e 700 707
e 700 749
e 701 880
e 701 985
e 702 987
e 703 732
e 704 919
e 704 832
e 704 910
e 705 876
e 705 789
e 707 876
e 707 942
e 710 715
e 711 929
e 712 733
e 712 736
e 712 898
e 715 951
e 715 892
e 717 909
e 718 955
e 718 935
e 720 872
e 720 733
e 721 762
e 722 735
e 722 991
e 725 893
e 725 921
e 727 962
e 732 844
e 732 882
e 734 764
e 735 852
e 735 746
e 737 786
e 738 932
e 738 963
e 738 771
e 739 794
e 739 810
e 742 943
e 742 931
e 742 974
e 742 886
e 745 938
e 745 940
e 746 750
e 746 966
e 747 779
e 747 982
e 747 840
e 747 870
e 749 834
e 751 752
e 751 876
e 753 809
e 756 838
e 759 957
e 759 786
e 760 872
e 761 891
e 762 870
e 763 971
e 763 937
e 763 999
e 764 932
e 765 810
e 767 859
e 767 916
e 768 815
e 769 943
e 769 966
e 771 954
e 771 841
e 771 964
e 775 962
e 777 797
e 777 866
e 779 891
e 782 945
e 782 929
e 783 785
e 784 994
e 786 789
e 786 935
e 787 841
e 787 807
e 788 900
e 788 895
e 790 807
e 791 938
e 793 872
e 793 844
e 802 813
e 803 846
e 804 898
e 805 848
e 805 954
e 806 814
e 809 971
e 810 994
e 810 902
e 810 956
e 810 892
e 812 934
e 813 949
e 813 933
e 813 825
e 814 951
e 815 871
e 815 857
e 816 872
e 817 848
e 818 951
e 818 937
e 819 863
e 822 930
e 822 928
e 823 948
e 823 841
e 823 910
e 831 955
e 832 925
e 832 962
e 835 963
e 835 969
e 835 893
e 838 894
e 839 962
e 840 985
e 840 844
e 840 894
e 844 883
e 846 965
e 846 939
e 847 865
e 847 903
e 847 861
e 852 991
e 852 960
e 861 971
e 861 955
e 865 936
e 869 938
e 870 890
e 871 882
e 874 883
e 875 955
e 876 986
e 882 892
e 883 898
e 884 964
e 887 906
e 887 971
e 890 989
e 891 955
e 891 956
e 896 909
e 900 930
e 906 965
e 907 908
e 907 943
e 907 978
e 915 949
e 916 982
e 926 941
e 930 989
e 931 968
e 932 938
e 934 994
e 951 962
e 969 997
